
Gurobi 8.1.1 (mac64, Python) logging started Tue Oct 22 10:20:55 2019

Academic license - for non-commercial use only
Optimize a model with 4 rows, 5 columns and 17 nonzeros
Coefficient statistics:
  Matrix range     [1e+00, 4e+00]
  Objective range  [1e+00, 1e+00]
  Bounds range     [0e+00, 0e+00]
  RHS range        [1e+00, 1e+00]
Presolve removed 1 rows and 1 columns
Presolve time: 0.03s
Presolved: 3 rows, 4 columns, 12 nonzeros

Iteration    Objective       Primal Inf.    Dual Inf.      Time
       0    3.0000000e+00   1.375000e+00   0.000000e+00      0s
       2    7.9487179e-01   0.000000e+00   0.000000e+00      0s

Solved in 2 iterations and 0.06 seconds
Optimal objective  7.948717949e-01
Optimize a model with 4 rows, 5 columns and 17 nonzeros
Coefficient statistics:
  Matrix range     [1e+00, 4e+00]
  Objective range  [1e+00, 1e+00]
  Bounds range     [0e+00, 0e+00]
  RHS range        [1e+00, 1e+00]
Presolve removed 1 rows and 1 columns
Presolve time: 0.01s
Presolved: 3 rows, 4 columns, 12 nonzeros

Iteration    Objective       Primal Inf.    Dual Inf.      Time
       0    3.0000000e+00   1.375000e+00   0.000000e+00      0s
       2    7.9487179e-01   0.000000e+00   0.000000e+00      0s

Solved in 2 iterations and 0.02 seconds
Optimal objective  7.948717949e-01
Optimize a model with 4 rows, 4 columns and 14 nonzeros
Coefficient statistics:
  Matrix range     [1e+00, 4e+00]
  Objective range  [1e+00, 1e+00]
  Bounds range     [0e+00, 0e+00]
  RHS range        [1e+00, 1e+00]
Presolve time: 0.03s
Presolved: 4 rows, 4 columns, 14 nonzeros

Iteration    Objective       Primal Inf.    Dual Inf.      Time
       0    0.0000000e+00   0.000000e+00   0.000000e+00      0s

Solved in 0 iterations and 0.04 seconds
Optimal objective  0.000000000e+00
Optimize a model with 4 rows, 4 columns and 14 nonzeros
Coefficient statistics:
  Matrix range     [1e+00, 4e+00]
  Objective range  [1e+00, 1e+00]
  Bounds range     [0e+00, 0e+00]
  RHS range        [1e+00, 1e+00]
Presolve time: 0.01s
Presolved: 4 rows, 4 columns, 14 nonzeros

Iteration    Objective       Primal Inf.    Dual Inf.      Time
       0    0.0000000e+00   0.000000e+00   0.000000e+00      0s

Solved in 0 iterations and 0.03 seconds
Optimal objective  0.000000000e+00
Optimize a model with 4 rows, 4 columns and 14 nonzeros
Coefficient statistics:
  Matrix range     [1e+00, 4e+00]
  Objective range  [1e+00, 1e+00]
  Bounds range     [0e+00, 0e+00]
  RHS range        [1e+00, 1e+00]
Presolve time: 0.02s
Presolved: 4 rows, 4 columns, 14 nonzeros

Iteration    Objective       Primal Inf.    Dual Inf.      Time
       0    0.0000000e+00   0.000000e+00   0.000000e+00      0s

Solved in 0 iterations and 0.03 seconds
Optimal objective  0.000000000e+00
Optimize a model with 5 rows, 4 columns and 17 nonzeros
Coefficient statistics:
  Matrix range     [1e+00, 4e+00]
  Objective range  [1e+00, 1e+00]
  Bounds range     [0e+00, 0e+00]
  RHS range        [1e+00, 1e+00]
Presolve time: 0.02s
Presolved: 5 rows, 4 columns, 17 nonzeros

Iteration    Objective       Primal Inf.    Dual Inf.      Time
       0    0.0000000e+00   1.500000e+00   0.000000e+00      0s
       3    7.9487179e-01   0.000000e+00   0.000000e+00      0s

Solved in 3 iterations and 0.03 seconds
Optimal objective  7.948717949e-01

Gurobi 8.1.1 (mac64, Python) logging started Tue Oct 22 13:22:36 2019

Academic license - for non-commercial use only
Optimize a model with 2 rows, 7 columns and 6 nonzeros
Model has 3 quadratic constraints
Coefficient statistics:
  Matrix range     [1e+00, 1e+00]
  QMatrix range    [1e+00, 1e+00]
  QLMatrix range   [1e+00, 1e+00]
  Objective range  [1e+00, 1e+00]
  Bounds range     [0e+00, 0e+00]
  RHS range        [1e+00, 1e+00]
Optimize a model with 2 rows, 7 columns and 6 nonzeros
Model has 3 quadratic constraints
Coefficient statistics:
  Matrix range     [1e+00, 1e+00]
  QMatrix range    [1e+00, 1e+00]
  QLMatrix range   [1e+00, 1e+00]
  Objective range  [1e+00, 1e+00]
  Bounds range     [0e+00, 0e+00]
  RHS range        [1e+00, 1e+00]
Optimize a model with 0 rows, 5 columns and 0 nonzeros
Model has 3 quadratic constraints
Coefficient statistics:
  Matrix range     [0e+00, 0e+00]
  QMatrix range    [1e+00, 2e+00]
  QLMatrix range   [1e+00, 2e+00]
  Objective range  [1e+00, 1e+00]
  Bounds range     [0e+00, 0e+00]
  RHS range        [0e+00, 0e+00]
  QRHS range       [1e+00, 1e+00]
Optimize a model with 3 rows, 3 columns and 9 nonzeros
Coefficient statistics:
  Matrix range     [1e+00, 2e+00]
  Objective range  [1e+00, 1e+00]
  Bounds range     [0e+00, 0e+00]
  RHS range        [1e+00, 1e+00]
Presolve removed 1 rows and 1 columns
Presolve time: 0.02s
Presolved: 2 rows, 2 columns, 4 nonzeros

Iteration    Objective       Primal Inf.    Dual Inf.      Time
       0    1.3333333e-03   4.333333e-03   0.000000e+00      0s
       1   -0.0000000e+00   0.000000e+00   0.000000e+00      0s

Solved in 1 iterations and 0.04 seconds
Optimal objective -0.000000000e+00
Optimize a model with 3 rows, 3 columns and 9 nonzeros
Coefficient statistics:
  Matrix range     [1e+00, 2e+00]
  Objective range  [1e+00, 1e+00]
  Bounds range     [0e+00, 0e+00]
  RHS range        [1e+00, 1e+00]
Presolve time: 0.02s

Solved in 0 iterations and 0.03 seconds
Infeasible or unbounded model
Optimize a model with 3 rows, 3 columns and 9 nonzeros
Coefficient statistics:
  Matrix range     [1e+00, 2e+00]
  Objective range  [1e+00, 1e+00]
  Bounds range     [0e+00, 0e+00]
  RHS range        [1e+00, 1e+00]
Presolve time: 0.02s
Presolved: 3 rows, 3 columns, 9 nonzeros

Iteration    Objective       Primal Inf.    Dual Inf.      Time
       0    0.0000000e+00   5.000000e-01   0.000000e+00      0s
       2    0.0000000e+00   0.000000e+00   0.000000e+00      0s

Solved in 2 iterations and 0.03 seconds
Optimal objective  0.000000000e+00

Gurobi 8.1.1 (mac64, Python) logging started Wed Oct 23 10:43:58 2019

Academic license - for non-commercial use only
Optimize a model with 3 rows, 3 columns and 9 nonzeros
Coefficient statistics:
  Matrix range     [1e+00, 2e+00]
  Objective range  [1e+00, 1e+00]
  Bounds range     [0e+00, 0e+00]
  RHS range        [1e+00, 1e+00]
Presolve removed 1 rows and 1 columns
Presolve time: 0.01s
Presolved: 2 rows, 2 columns, 4 nonzeros

Iteration    Objective       Primal Inf.    Dual Inf.      Time
       0    1.3333333e-03   4.333333e-03   0.000000e+00      0s
       1   -0.0000000e+00   0.000000e+00   0.000000e+00      0s

Solved in 1 iterations and 0.02 seconds
Optimal objective -0.000000000e+00
Optimize a model with 3 rows, 3 columns and 9 nonzeros
Coefficient statistics:
  Matrix range     [1e+00, 2e+00]
  Objective range  [1e+00, 1e+00]
  Bounds range     [0e+00, 0e+00]
  RHS range        [1e+00, 1e+00]
Presolve time: 0.01s
Presolved: 3 rows, 3 columns, 9 nonzeros

Iteration    Objective       Primal Inf.    Dual Inf.      Time
       0    0.0000000e+00   5.000000e-01   0.000000e+00      0s
       2    0.0000000e+00   0.000000e+00   0.000000e+00      0s

Solved in 2 iterations and 0.02 seconds
Optimal objective  0.000000000e+00

Gurobi 8.1.1 (mac64, Python) logging started Wed Oct 23 11:07:18 2019

Academic license - for non-commercial use only
Optimize a model with 4 rows, 5 columns and 17 nonzeros
Coefficient statistics:
  Matrix range     [1e+00, 4e+00]
  Objective range  [1e+00, 1e+00]
  Bounds range     [0e+00, 0e+00]
  RHS range        [1e+00, 1e+00]
Presolve removed 1 rows and 1 columns
Presolve time: 0.03s
Presolved: 3 rows, 4 columns, 12 nonzeros

Iteration    Objective       Primal Inf.    Dual Inf.      Time
       0    3.0000000e+00   1.375000e+00   0.000000e+00      0s
       2    7.9487179e-01   0.000000e+00   0.000000e+00      0s

Solved in 2 iterations and 0.04 seconds
Optimal objective  7.948717949e-01
Optimize a model with 5 rows, 4 columns and 17 nonzeros
Coefficient statistics:
  Matrix range     [1e+00, 4e+00]
  Objective range  [1e+00, 1e+00]
  Bounds range     [0e+00, 0e+00]
  RHS range        [1e+00, 1e+00]
Presolve time: 0.01s
Presolved: 5 rows, 4 columns, 17 nonzeros

Iteration    Objective       Primal Inf.    Dual Inf.      Time
       0    0.0000000e+00   1.500000e+00   0.000000e+00      0s
       3    7.9487179e-01   0.000000e+00   0.000000e+00      0s

Solved in 3 iterations and 0.02 seconds
Optimal objective  7.948717949e-01

Gurobi 8.1.1 (mac64, Python) logging started Wed Oct 23 20:36:20 2019

Academic license - for non-commercial use only
Optimize a model with 5 rows, 4 columns and 17 nonzeros
Coefficient statistics:
  Matrix range     [1e+00, 4e+00]
  Objective range  [1e+00, 1e+00]
  Bounds range     [0e+00, 0e+00]
  RHS range        [1e+00, 1e+00]
Presolve removed 1 rows and 1 columns
Presolve time: 0.02s
Presolved: 4 rows, 3 columns, 12 nonzeros

Iteration    Objective       Primal Inf.    Dual Inf.      Time
       0    1.6178000e+00   1.179611e+00   0.000000e+00      0s
       3    9.3333333e-02   0.000000e+00   0.000000e+00      0s

Solved in 3 iterations and 0.05 seconds
Optimal objective  9.333333333e-02
